p cnf 12 50 
-6 -9 10 0
-6 3 4 0
-3 -2 -8 0
-9 12 7 0
6 12 -5 0
-5 10 -3 0
3 -9 -6 0
-5 -10 9 0
-8 -5 3 0
10 -6 11 0
4 2 8 0
10 -5 7 0
-8 -10 -7 0
11 -9 4 0
4 -7 10 0
7 -9 -10 0
8 7 1 0
-5 7 -9 0
-3 1 -9 0
-7 -5 -10 0
-8 -1 -7 0
6 12 11 0
4 11 -5 0
10 11 8 0
6 1 -3 0
-8 9 12 0
-4 7 5 0
1 -5 7 0
4 -2 12 0
-10 4 -8 0
9 -12 -10 0
2 -6 4 0
-10 5 -7 0
12 9 1 0
7 2 9 0
3 -4 10 0
8 -1 -12 0
6 -2 7 0
10 12 9 0
2 -10 -4 0
10 -3 4 0
-6 12 -8 0
-7 5 12 0
8 -4 -2 0
-3 2 -4 0
-9 -1 -5 0
1 -5 -8 0
1 -10 7 0
7 -11 -10 0
-2 7 -11 0
